; benchmark generated from python API
(set-info :status unknown)
(declare-fun x_months () (_ BitVec 32))
(declare-fun x_beta () (_ BitVec 32))
(assert
 (bvsle (_ bv4294966096 32) x_months))
(assert
 (bvsge (_ bv1199 32) x_months))
(assert
 (let ((?x4936 (bvsmod x_months (_ bv48 32))))
 (let ((?x13 ((as const (Array (_ BitVec 32) (_ BitVec 32))) (_ bv0 32))))
 (let ((?x15 (store ?x13 (_ bv0 32) (_ bv31 32))))
 (let ((?x18 (store ?x15 (_ bv1 32) (_ bv30 32))))
 (let ((?x20 (store ?x18 (_ bv2 32) (_ bv31 32))))
 (let ((?x22 (store ?x20 (_ bv3 32) (_ bv30 32))))
 (let ((?x24 (store ?x22 (_ bv4 32) (_ bv31 32))))
 (let ((?x26 (store ?x24 (_ bv5 32) (_ bv31 32))))
 (let ((?x28 (store ?x26 (_ bv6 32) (_ bv30 32))))
 (let ((?x30 (store ?x28 (_ bv7 32) (_ bv31 32))))
 (let ((?x32 (store ?x30 (_ bv8 32) (_ bv30 32))))
 (let ((?x34 (store ?x32 (_ bv9 32) (_ bv31 32))))
 (let ((?x36 (store ?x34 (_ bv10 32) (_ bv31 32))))
 (let ((?x39 (store ?x36 (_ bv11 32) (_ bv28 32))))
 (let ((?x41 (store ?x39 (_ bv12 32) (_ bv31 32))))
 (let ((?x43 (store ?x41 (_ bv13 32) (_ bv30 32))))
 (let ((?x45 (store ?x43 (_ bv14 32) (_ bv31 32))))
 (let ((?x47 (store ?x45 (_ bv15 32) (_ bv30 32))))
 (let ((?x49 (store ?x47 (_ bv16 32) (_ bv31 32))))
 (let ((?x51 (store ?x49 (_ bv17 32) (_ bv31 32))))
 (let ((?x53 (store ?x51 (_ bv18 32) (_ bv30 32))))
 (let ((?x55 (store ?x53 (_ bv19 32) (_ bv31 32))))
 (let ((?x57 (store ?x55 (_ bv20 32) (_ bv30 32))))
 (let ((?x59 (store ?x57 (_ bv21 32) (_ bv31 32))))
 (let ((?x61 (store ?x59 (_ bv22 32) (_ bv31 32))))
 (let ((?x63 (store ?x61 (_ bv23 32) (_ bv28 32))))
 (let ((?x65 (store ?x63 (_ bv24 32) (_ bv31 32))))
 (let ((?x67 (store ?x65 (_ bv25 32) (_ bv30 32))))
 (let ((?x69 (store ?x67 (_ bv26 32) (_ bv31 32))))
 (let ((?x71 (store ?x69 (_ bv27 32) (_ bv30 32))))
 (let ((?x72 (store ?x71 (_ bv28 32) (_ bv31 32))))
 (let ((?x74 (store ?x72 (_ bv29 32) (_ bv31 32))))
 (let ((?x75 (store ?x74 (_ bv30 32) (_ bv30 32))))
 (let ((?x76 (store ?x75 (_ bv31 32) (_ bv31 32))))
 (let ((?x78 (store ?x76 (_ bv32 32) (_ bv30 32))))
 (let ((?x80 (store ?x78 (_ bv33 32) (_ bv31 32))))
 (let ((?x82 (store ?x80 (_ bv34 32) (_ bv31 32))))
 (let ((?x84 (store ?x82 (_ bv35 32) (_ bv28 32))))
 (let ((?x86 (store ?x84 (_ bv36 32) (_ bv31 32))))
 (let ((?x88 (store ?x86 (_ bv37 32) (_ bv30 32))))
 (let ((?x90 (store ?x88 (_ bv38 32) (_ bv31 32))))
 (let ((?x92 (store ?x90 (_ bv39 32) (_ bv30 32))))
 (let ((?x94 (store ?x92 (_ bv40 32) (_ bv31 32))))
 (let ((?x96 (store ?x94 (_ bv41 32) (_ bv31 32))))
 (let ((?x98 (store ?x96 (_ bv42 32) (_ bv30 32))))
 (let ((?x100 (store ?x98 (_ bv43 32) (_ bv31 32))))
 (let ((?x102 (store ?x100 (_ bv44 32) (_ bv30 32))))
 (let ((?x104 (store ?x102 (_ bv45 32) (_ bv31 32))))
 (let ((?x106 (store ?x104 (_ bv46 32) (_ bv31 32))))
 (let ((?x108 (store ?x106 (_ bv47 32) (_ bv29 32))))
 (let (($x75811 (or (= (_ bv22802 32) (bvadd x_months (_ bv24003 32))) (= (_ bv25202 32) (bvadd x_months (_ bv24003 32))))))
 (let ((?x13331 (ite $x75811 (_ bv28 32) (select ?x108 ?x4936))))
 (let (($x18369 (bvsle (_ bv0 32) x_beta)))
 (and $x18369 (bvslt x_beta ?x13331))))))))))))))))))))))))))))))))))))))))))))))))))))))))
(assert
 (and (= x_months (bvsub (bvadd (bvmul (_ bv2020 32) (_ bv12 32)) (_ bv2 32)) (_ bv24003 32))) (= (_ bv28 32) x_beta)))
(assert
 (let ((?x37904 (bvadd x_months (_ bv12 32))))
(let ((?x16793 (bvsmod ?x37904 (_ bv48 32))))
(let ((?x60209 (ite (bvsgt (_ bv22803 32) (bvadd ?x37904 (_ bv24003 32))) (_ bv1 32) (ite (bvsle (_ bv25203 32) (bvadd ?x37904 (_ bv24003 32))) (_ bv4294967295 32) (_ bv0 32)))))
(let ((?x13 ((as const (Array (_ BitVec 32) (_ BitVec 32))) (_ bv0 32))))
(let ((?x15 (store ?x13 (_ bv0 32) (_ bv31 32))))
(let ((?x18 (store ?x15 (_ bv1 32) (_ bv30 32))))
(let ((?x20 (store ?x18 (_ bv2 32) (_ bv31 32))))
(let ((?x22 (store ?x20 (_ bv3 32) (_ bv30 32))))
(let ((?x24 (store ?x22 (_ bv4 32) (_ bv31 32))))
(let ((?x26 (store ?x24 (_ bv5 32) (_ bv31 32))))
(let ((?x28 (store ?x26 (_ bv6 32) (_ bv30 32))))
(let ((?x30 (store ?x28 (_ bv7 32) (_ bv31 32))))
(let ((?x32 (store ?x30 (_ bv8 32) (_ bv30 32))))
(let ((?x34 (store ?x32 (_ bv9 32) (_ bv31 32))))
(let ((?x36 (store ?x34 (_ bv10 32) (_ bv31 32))))
(let ((?x39 (store ?x36 (_ bv11 32) (_ bv28 32))))
(let ((?x41 (store ?x39 (_ bv12 32) (_ bv31 32))))
(let ((?x43 (store ?x41 (_ bv13 32) (_ bv30 32))))
(let ((?x45 (store ?x43 (_ bv14 32) (_ bv31 32))))
(let ((?x47 (store ?x45 (_ bv15 32) (_ bv30 32))))
(let ((?x49 (store ?x47 (_ bv16 32) (_ bv31 32))))
(let ((?x51 (store ?x49 (_ bv17 32) (_ bv31 32))))
(let ((?x53 (store ?x51 (_ bv18 32) (_ bv30 32))))
(let ((?x55 (store ?x53 (_ bv19 32) (_ bv31 32))))
(let ((?x57 (store ?x55 (_ bv20 32) (_ bv30 32))))
(let ((?x59 (store ?x57 (_ bv21 32) (_ bv31 32))))
(let ((?x61 (store ?x59 (_ bv22 32) (_ bv31 32))))
(let ((?x63 (store ?x61 (_ bv23 32) (_ bv28 32))))
(let ((?x65 (store ?x63 (_ bv24 32) (_ bv31 32))))
(let ((?x67 (store ?x65 (_ bv25 32) (_ bv30 32))))
(let ((?x69 (store ?x67 (_ bv26 32) (_ bv31 32))))
(let ((?x71 (store ?x69 (_ bv27 32) (_ bv30 32))))
(let ((?x72 (store ?x71 (_ bv28 32) (_ bv31 32))))
(let ((?x74 (store ?x72 (_ bv29 32) (_ bv31 32))))
(let ((?x75 (store ?x74 (_ bv30 32) (_ bv30 32))))
(let ((?x76 (store ?x75 (_ bv31 32) (_ bv31 32))))
(let ((?x78 (store ?x76 (_ bv32 32) (_ bv30 32))))
(let ((?x80 (store ?x78 (_ bv33 32) (_ bv31 32))))
(let ((?x82 (store ?x80 (_ bv34 32) (_ bv31 32))))
(let ((?x84 (store ?x82 (_ bv35 32) (_ bv28 32))))
(let ((?x86 (store ?x84 (_ bv36 32) (_ bv31 32))))
(let ((?x88 (store ?x86 (_ bv37 32) (_ bv30 32))))
(let ((?x90 (store ?x88 (_ bv38 32) (_ bv31 32))))
(let ((?x92 (store ?x90 (_ bv39 32) (_ bv30 32))))
(let ((?x94 (store ?x92 (_ bv40 32) (_ bv31 32))))
(let ((?x96 (store ?x94 (_ bv41 32) (_ bv31 32))))
(let ((?x98 (store ?x96 (_ bv42 32) (_ bv30 32))))
(let ((?x100 (store ?x98 (_ bv43 32) (_ bv31 32))))
(let ((?x102 (store ?x100 (_ bv44 32) (_ bv30 32))))
(let ((?x104 (store ?x102 (_ bv45 32) (_ bv31 32))))
(let ((?x106 (store ?x104 (_ bv46 32) (_ bv31 32))))
(let ((?x108 (store ?x106 (_ bv47 32) (_ bv29 32))))
(let ((?x83620 (ite (or (= (_ bv22802 32) (bvadd ?x37904 (_ bv24003 32))) (= (_ bv25202 32) (bvadd ?x37904 (_ bv24003 32)))) (_ bv28 32) (select ?x108 ?x16793))))
(let ((?x37745 (bvsub ?x83620 (_ bv1 32))))
(let ((?x20850 (ite (bvsgt (_ bv0 32) x_beta) (_ bv0 32) (ite (bvsgt x_beta ?x37745) ?x37745 x_beta))))
(let ((?x114 (store (store (store (store ?x13 (_ bv0 32) (_ bv0 32)) (_ bv1 32) (_ bv31 32)) (_ bv2 32) (_ bv61 32)) (_ bv3 32) (_ bv92 32))))
(let ((?x122 (store (store (store (store ?x114 (_ bv4 32) (_ bv122 32)) (_ bv5 32) (_ bv153 32)) (_ bv6 32) (_ bv184 32)) (_ bv7 32) (_ bv214 32))))
(let ((?x130 (store (store (store (store ?x122 (_ bv8 32) (_ bv245 32)) (_ bv9 32) (_ bv275 32)) (_ bv10 32) (_ bv306 32)) (_ bv11 32) (_ bv337 32))))
(let ((?x138 (store (store (store (store ?x130 (_ bv12 32) (_ bv365 32)) (_ bv13 32) (_ bv396 32)) (_ bv14 32) (_ bv426 32)) (_ bv15 32) (_ bv457 32))))
(let ((?x146 (store (store (store (store ?x138 (_ bv16 32) (_ bv487 32)) (_ bv17 32) (_ bv518 32)) (_ bv18 32) (_ bv549 32)) (_ bv19 32) (_ bv579 32))))
(let ((?x154 (store (store (store (store ?x146 (_ bv20 32) (_ bv610 32)) (_ bv21 32) (_ bv640 32)) (_ bv22 32) (_ bv671 32)) (_ bv23 32) (_ bv702 32))))
(let ((?x162 (store (store (store (store ?x154 (_ bv24 32) (_ bv730 32)) (_ bv25 32) (_ bv761 32)) (_ bv26 32) (_ bv791 32)) (_ bv27 32) (_ bv822 32))))
(let ((?x170 (store (store (store (store ?x162 (_ bv28 32) (_ bv852 32)) (_ bv29 32) (_ bv883 32)) (_ bv30 32) (_ bv914 32)) (_ bv31 32) (_ bv944 32))))
(let ((?x178 (store (store (store (store ?x170 (_ bv32 32) (_ bv975 32)) (_ bv33 32) (_ bv1005 32)) (_ bv34 32) (_ bv1036 32)) (_ bv35 32) (_ bv1067 32))))
(let ((?x186 (store (store (store (store ?x178 (_ bv36 32) (_ bv1095 32)) (_ bv37 32) (_ bv1126 32)) (_ bv38 32) (_ bv1156 32)) (_ bv39 32) (_ bv1187 32))))
(let ((?x194 (store (store (store (store ?x186 (_ bv40 32) (_ bv1217 32)) (_ bv41 32) (_ bv1248 32)) (_ bv42 32) (_ bv1279 32)) (_ bv43 32) (_ bv1309 32))))
(let ((?x202 (store (store (store (store ?x194 (_ bv44 32) (_ bv1340 32)) (_ bv45 32) (_ bv1370 32)) (_ bv46 32) (_ bv1401 32)) (_ bv47 32) (_ bv1432 32))))
(let ((?x24605 (bvadd (bvadd (bvadd (select ?x202 ?x16793) ?x20850) ?x60209) (_ bv0 32))))
(let ((?x13880 (ite (bvuge ?x24605 (_ bv2147483648 32)) (bvsub ?x24605 (_ bv0 32)) ?x24605)))
(let ((?x12998 (bvsdiv ?x13880 (_ bv1461 32))))
(let ((?x24102 (ite (and (bvuge ?x13880 (_ bv2147483648 32)) (and (distinct (_ bv0 32) (bvsmod ?x13880 (_ bv1461 32))) true)) (bvsub ?x12998 (_ bv1 32)) ?x12998)))
(let ((?x87308 (bvadd ?x37904 (bvmul ?x24102 (_ bv48 32)))))
(let ((?x67979 (bvadd (bvadd ?x87308 (bvsub (_ bv1 32) ?x16793)) (_ bv24003 32))))
(let ((?x13617 (bvadd (select ?x202 (_ bv1 32)) (ite (bvsgt (_ bv22803 32) ?x67979) (_ bv1 32) (ite (bvsle (_ bv25203 32) ?x67979) (_ bv4294967295 32) (_ bv0 32))))))
(let ((?x22908 (bvsmod ?x24605 (_ bv1461 32))))
(let ((?x74154 (ite (bvsle (_ bv25203 32) (bvadd (bvadd ?x87308 (bvsub (_ bv2 32) ?x16793)) (_ bv24003 32))) (_ bv4294967295 32) (_ bv0 32))))
(let ((?x24221 (ite (bvsgt (_ bv22803 32) (bvadd (bvadd ?x87308 (bvsub (_ bv2 32) ?x16793)) (_ bv24003 32))) (_ bv1 32) ?x74154)))
(let ((?x89324 (ite (bvsge ?x22908 (bvadd (select ?x202 (_ bv2 32)) ?x24221)) (_ bv2 32) (ite (bvsge ?x22908 ?x13617) (_ bv1 32) (_ bv0 32)))))
(let ((?x66029 (ite (bvsle (_ bv25203 32) (bvadd (bvadd ?x87308 (bvsub (_ bv3 32) ?x16793)) (_ bv24003 32))) (_ bv4294967295 32) (_ bv0 32))))
(let ((?x66811 (ite (bvsgt (_ bv22803 32) (bvadd (bvadd ?x87308 (bvsub (_ bv3 32) ?x16793)) (_ bv24003 32))) (_ bv1 32) ?x66029)))
(let ((?x80392 (ite (bvsle (_ bv25203 32) (bvadd (bvadd ?x87308 (bvsub (_ bv4 32) ?x16793)) (_ bv24003 32))) (_ bv4294967295 32) (_ bv0 32))))
(let ((?x85340 (ite (bvsgt (_ bv22803 32) (bvadd (bvadd ?x87308 (bvsub (_ bv4 32) ?x16793)) (_ bv24003 32))) (_ bv1 32) ?x80392)))
(let ((?x62781 (ite (bvsge ?x22908 (bvadd (select ?x202 (_ bv4 32)) ?x85340)) (_ bv4 32) (ite (bvsge ?x22908 (bvadd (select ?x202 (_ bv3 32)) ?x66811)) (_ bv3 32) ?x89324))))
(let ((?x58172 (ite (bvsle (_ bv25203 32) (bvadd (bvadd ?x87308 (bvsub (_ bv5 32) ?x16793)) (_ bv24003 32))) (_ bv4294967295 32) (_ bv0 32))))
(let ((?x39591 (ite (bvsgt (_ bv22803 32) (bvadd (bvadd ?x87308 (bvsub (_ bv5 32) ?x16793)) (_ bv24003 32))) (_ bv1 32) ?x58172)))
(let ((?x67800 (ite (bvsle (_ bv25203 32) (bvadd (bvadd ?x87308 (bvsub (_ bv6 32) ?x16793)) (_ bv24003 32))) (_ bv4294967295 32) (_ bv0 32))))
(let ((?x23124 (ite (bvsgt (_ bv22803 32) (bvadd (bvadd ?x87308 (bvsub (_ bv6 32) ?x16793)) (_ bv24003 32))) (_ bv1 32) ?x67800)))
(let ((?x55886 (ite (bvsge ?x22908 (bvadd (select ?x202 (_ bv6 32)) ?x23124)) (_ bv6 32) (ite (bvsge ?x22908 (bvadd (select ?x202 (_ bv5 32)) ?x39591)) (_ bv5 32) ?x62781))))
(let ((?x47705 (ite (bvsle (_ bv25203 32) (bvadd (bvadd ?x87308 (bvsub (_ bv7 32) ?x16793)) (_ bv24003 32))) (_ bv4294967295 32) (_ bv0 32))))
(let ((?x47721 (ite (bvsgt (_ bv22803 32) (bvadd (bvadd ?x87308 (bvsub (_ bv7 32) ?x16793)) (_ bv24003 32))) (_ bv1 32) ?x47705)))
(let ((?x52389 (ite (bvsle (_ bv25203 32) (bvadd (bvadd ?x87308 (bvsub (_ bv8 32) ?x16793)) (_ bv24003 32))) (_ bv4294967295 32) (_ bv0 32))))
(let ((?x32956 (ite (bvsgt (_ bv22803 32) (bvadd (bvadd ?x87308 (bvsub (_ bv8 32) ?x16793)) (_ bv24003 32))) (_ bv1 32) ?x52389)))
(let ((?x88806 (ite (bvsge ?x22908 (bvadd (select ?x202 (_ bv8 32)) ?x32956)) (_ bv8 32) (ite (bvsge ?x22908 (bvadd (select ?x202 (_ bv7 32)) ?x47721)) (_ bv7 32) ?x55886))))
(let ((?x73864 (ite (bvsle (_ bv25203 32) (bvadd (bvadd ?x87308 (bvsub (_ bv9 32) ?x16793)) (_ bv24003 32))) (_ bv4294967295 32) (_ bv0 32))))
(let ((?x63272 (ite (bvsgt (_ bv22803 32) (bvadd (bvadd ?x87308 (bvsub (_ bv9 32) ?x16793)) (_ bv24003 32))) (_ bv1 32) ?x73864)))
(let ((?x47758 (ite (bvsle (_ bv25203 32) (bvadd (bvadd ?x87308 (bvsub (_ bv10 32) ?x16793)) (_ bv24003 32))) (_ bv4294967295 32) (_ bv0 32))))
(let ((?x88918 (ite (bvsgt (_ bv22803 32) (bvadd (bvadd ?x87308 (bvsub (_ bv10 32) ?x16793)) (_ bv24003 32))) (_ bv1 32) ?x47758)))
(let ((?x88539 (ite (bvsge ?x22908 (bvadd (select ?x202 (_ bv10 32)) ?x88918)) (_ bv10 32) (ite (bvsge ?x22908 (bvadd (select ?x202 (_ bv9 32)) ?x63272)) (_ bv9 32) ?x88806))))
(let ((?x5466 (ite (bvsle (_ bv25203 32) (bvadd (bvadd ?x87308 (bvsub (_ bv11 32) ?x16793)) (_ bv24003 32))) (_ bv4294967295 32) (_ bv0 32))))
(let ((?x77505 (ite (bvsgt (_ bv22803 32) (bvadd (bvadd ?x87308 (bvsub (_ bv11 32) ?x16793)) (_ bv24003 32))) (_ bv1 32) ?x5466)))
(let ((?x61583 (ite (bvsle (_ bv25203 32) (bvadd (bvadd ?x87308 (bvsub (_ bv12 32) ?x16793)) (_ bv24003 32))) (_ bv4294967295 32) (_ bv0 32))))
(let ((?x35784 (ite (bvsgt (_ bv22803 32) (bvadd (bvadd ?x87308 (bvsub (_ bv12 32) ?x16793)) (_ bv24003 32))) (_ bv1 32) ?x61583)))
(let ((?x53015 (ite (bvsge ?x22908 (bvadd (select ?x202 (_ bv12 32)) ?x35784)) (_ bv12 32) (ite (bvsge ?x22908 (bvadd (select ?x202 (_ bv11 32)) ?x77505)) (_ bv11 32) ?x88539))))
(let ((?x42657 (ite (bvsle (_ bv25203 32) (bvadd (bvadd ?x87308 (bvsub (_ bv13 32) ?x16793)) (_ bv24003 32))) (_ bv4294967295 32) (_ bv0 32))))
(let ((?x6149 (ite (bvsgt (_ bv22803 32) (bvadd (bvadd ?x87308 (bvsub (_ bv13 32) ?x16793)) (_ bv24003 32))) (_ bv1 32) ?x42657)))
(let ((?x67214 (ite (bvsle (_ bv25203 32) (bvadd (bvadd ?x87308 (bvsub (_ bv14 32) ?x16793)) (_ bv24003 32))) (_ bv4294967295 32) (_ bv0 32))))
(let ((?x41820 (ite (bvsgt (_ bv22803 32) (bvadd (bvadd ?x87308 (bvsub (_ bv14 32) ?x16793)) (_ bv24003 32))) (_ bv1 32) ?x67214)))
(let ((?x44803 (ite (bvsge ?x22908 (bvadd (select ?x202 (_ bv14 32)) ?x41820)) (_ bv14 32) (ite (bvsge ?x22908 (bvadd (select ?x202 (_ bv13 32)) ?x6149)) (_ bv13 32) ?x53015))))
(let ((?x56940 (ite (bvsle (_ bv25203 32) (bvadd (bvadd ?x87308 (bvsub (_ bv15 32) ?x16793)) (_ bv24003 32))) (_ bv4294967295 32) (_ bv0 32))))
(let ((?x65979 (ite (bvsgt (_ bv22803 32) (bvadd (bvadd ?x87308 (bvsub (_ bv15 32) ?x16793)) (_ bv24003 32))) (_ bv1 32) ?x56940)))
(let ((?x26883 (ite (bvsle (_ bv25203 32) (bvadd (bvadd ?x87308 (bvsub (_ bv16 32) ?x16793)) (_ bv24003 32))) (_ bv4294967295 32) (_ bv0 32))))
(let ((?x73183 (ite (bvsgt (_ bv22803 32) (bvadd (bvadd ?x87308 (bvsub (_ bv16 32) ?x16793)) (_ bv24003 32))) (_ bv1 32) ?x26883)))
(let ((?x87435 (ite (bvsge ?x22908 (bvadd (select ?x202 (_ bv16 32)) ?x73183)) (_ bv16 32) (ite (bvsge ?x22908 (bvadd (select ?x202 (_ bv15 32)) ?x65979)) (_ bv15 32) ?x44803))))
(let ((?x6873 (ite (bvsle (_ bv25203 32) (bvadd (bvadd ?x87308 (bvsub (_ bv17 32) ?x16793)) (_ bv24003 32))) (_ bv4294967295 32) (_ bv0 32))))
(let ((?x53321 (ite (bvsgt (_ bv22803 32) (bvadd (bvadd ?x87308 (bvsub (_ bv17 32) ?x16793)) (_ bv24003 32))) (_ bv1 32) ?x6873)))
(let ((?x71310 (ite (bvsle (_ bv25203 32) (bvadd (bvadd ?x87308 (bvsub (_ bv18 32) ?x16793)) (_ bv24003 32))) (_ bv4294967295 32) (_ bv0 32))))
(let ((?x56755 (ite (bvsgt (_ bv22803 32) (bvadd (bvadd ?x87308 (bvsub (_ bv18 32) ?x16793)) (_ bv24003 32))) (_ bv1 32) ?x71310)))
(let ((?x55853 (ite (bvsge ?x22908 (bvadd (select ?x202 (_ bv18 32)) ?x56755)) (_ bv18 32) (ite (bvsge ?x22908 (bvadd (select ?x202 (_ bv17 32)) ?x53321)) (_ bv17 32) ?x87435))))
(let ((?x80682 (ite (bvsle (_ bv25203 32) (bvadd (bvadd ?x87308 (bvsub (_ bv19 32) ?x16793)) (_ bv24003 32))) (_ bv4294967295 32) (_ bv0 32))))
(let ((?x1493 (ite (bvsgt (_ bv22803 32) (bvadd (bvadd ?x87308 (bvsub (_ bv19 32) ?x16793)) (_ bv24003 32))) (_ bv1 32) ?x80682)))
(let ((?x71536 (ite (bvsle (_ bv25203 32) (bvadd (bvadd ?x87308 (bvsub (_ bv20 32) ?x16793)) (_ bv24003 32))) (_ bv4294967295 32) (_ bv0 32))))
(let ((?x11957 (ite (bvsgt (_ bv22803 32) (bvadd (bvadd ?x87308 (bvsub (_ bv20 32) ?x16793)) (_ bv24003 32))) (_ bv1 32) ?x71536)))
(let ((?x6461 (ite (bvsge ?x22908 (bvadd (select ?x202 (_ bv20 32)) ?x11957)) (_ bv20 32) (ite (bvsge ?x22908 (bvadd (select ?x202 (_ bv19 32)) ?x1493)) (_ bv19 32) ?x55853))))
(let ((?x51706 (ite (bvsle (_ bv25203 32) (bvadd (bvadd ?x87308 (bvsub (_ bv21 32) ?x16793)) (_ bv24003 32))) (_ bv4294967295 32) (_ bv0 32))))
(let ((?x12078 (ite (bvsgt (_ bv22803 32) (bvadd (bvadd ?x87308 (bvsub (_ bv21 32) ?x16793)) (_ bv24003 32))) (_ bv1 32) ?x51706)))
(let ((?x33100 (ite (bvsle (_ bv25203 32) (bvadd (bvadd ?x87308 (bvsub (_ bv22 32) ?x16793)) (_ bv24003 32))) (_ bv4294967295 32) (_ bv0 32))))
(let ((?x42279 (ite (bvsgt (_ bv22803 32) (bvadd (bvadd ?x87308 (bvsub (_ bv22 32) ?x16793)) (_ bv24003 32))) (_ bv1 32) ?x33100)))
(let ((?x98452 (ite (bvsge ?x22908 (bvadd (select ?x202 (_ bv22 32)) ?x42279)) (_ bv22 32) (ite (bvsge ?x22908 (bvadd (select ?x202 (_ bv21 32)) ?x12078)) (_ bv21 32) ?x6461))))
(let ((?x90915 (ite (bvsle (_ bv25203 32) (bvadd (bvadd ?x87308 (bvsub (_ bv23 32) ?x16793)) (_ bv24003 32))) (_ bv4294967295 32) (_ bv0 32))))
(let ((?x47289 (ite (bvsgt (_ bv22803 32) (bvadd (bvadd ?x87308 (bvsub (_ bv23 32) ?x16793)) (_ bv24003 32))) (_ bv1 32) ?x90915)))
(let ((?x1954 (ite (bvsle (_ bv25203 32) (bvadd (bvadd ?x87308 (bvsub (_ bv24 32) ?x16793)) (_ bv24003 32))) (_ bv4294967295 32) (_ bv0 32))))
(let ((?x38550 (ite (bvsgt (_ bv22803 32) (bvadd (bvadd ?x87308 (bvsub (_ bv24 32) ?x16793)) (_ bv24003 32))) (_ bv1 32) ?x1954)))
(let ((?x2133 (ite (bvsge ?x22908 (bvadd (select ?x202 (_ bv24 32)) ?x38550)) (_ bv24 32) (ite (bvsge ?x22908 (bvadd (select ?x202 (_ bv23 32)) ?x47289)) (_ bv23 32) ?x98452))))
(let ((?x73451 (ite (bvsle (_ bv25203 32) (bvadd (bvadd ?x87308 (bvsub (_ bv25 32) ?x16793)) (_ bv24003 32))) (_ bv4294967295 32) (_ bv0 32))))
(let ((?x20049 (ite (bvsgt (_ bv22803 32) (bvadd (bvadd ?x87308 (bvsub (_ bv25 32) ?x16793)) (_ bv24003 32))) (_ bv1 32) ?x73451)))
(let ((?x14003 (ite (bvsle (_ bv25203 32) (bvadd (bvadd ?x87308 (bvsub (_ bv26 32) ?x16793)) (_ bv24003 32))) (_ bv4294967295 32) (_ bv0 32))))
(let ((?x14834 (ite (bvsgt (_ bv22803 32) (bvadd (bvadd ?x87308 (bvsub (_ bv26 32) ?x16793)) (_ bv24003 32))) (_ bv1 32) ?x14003)))
(let ((?x5614 (ite (bvsge ?x22908 (bvadd (select ?x202 (_ bv26 32)) ?x14834)) (_ bv26 32) (ite (bvsge ?x22908 (bvadd (select ?x202 (_ bv25 32)) ?x20049)) (_ bv25 32) ?x2133))))
(let ((?x49560 (ite (bvsle (_ bv25203 32) (bvadd (bvadd ?x87308 (bvsub (_ bv27 32) ?x16793)) (_ bv24003 32))) (_ bv4294967295 32) (_ bv0 32))))
(let ((?x60000 (ite (bvsgt (_ bv22803 32) (bvadd (bvadd ?x87308 (bvsub (_ bv27 32) ?x16793)) (_ bv24003 32))) (_ bv1 32) ?x49560)))
(let ((?x59551 (ite (bvsle (_ bv25203 32) (bvadd (bvadd ?x87308 (bvsub (_ bv28 32) ?x16793)) (_ bv24003 32))) (_ bv4294967295 32) (_ bv0 32))))
(let ((?x29390 (ite (bvsgt (_ bv22803 32) (bvadd (bvadd ?x87308 (bvsub (_ bv28 32) ?x16793)) (_ bv24003 32))) (_ bv1 32) ?x59551)))
(let ((?x71862 (ite (bvsge ?x22908 (bvadd (select ?x202 (_ bv28 32)) ?x29390)) (_ bv28 32) (ite (bvsge ?x22908 (bvadd (select ?x202 (_ bv27 32)) ?x60000)) (_ bv27 32) ?x5614))))
(let ((?x86326 (ite (bvsle (_ bv25203 32) (bvadd (bvadd ?x87308 (bvsub (_ bv29 32) ?x16793)) (_ bv24003 32))) (_ bv4294967295 32) (_ bv0 32))))
(let ((?x15781 (ite (bvsgt (_ bv22803 32) (bvadd (bvadd ?x87308 (bvsub (_ bv29 32) ?x16793)) (_ bv24003 32))) (_ bv1 32) ?x86326)))
(let ((?x84454 (ite (bvsle (_ bv25203 32) (bvadd (bvadd ?x87308 (bvsub (_ bv30 32) ?x16793)) (_ bv24003 32))) (_ bv4294967295 32) (_ bv0 32))))
(let ((?x4383 (ite (bvsgt (_ bv22803 32) (bvadd (bvadd ?x87308 (bvsub (_ bv30 32) ?x16793)) (_ bv24003 32))) (_ bv1 32) ?x84454)))
(let ((?x41865 (ite (bvsge ?x22908 (bvadd (select ?x202 (_ bv30 32)) ?x4383)) (_ bv30 32) (ite (bvsge ?x22908 (bvadd (select ?x202 (_ bv29 32)) ?x15781)) (_ bv29 32) ?x71862))))
(let ((?x43055 (ite (bvsle (_ bv25203 32) (bvadd (bvadd ?x87308 (bvsub (_ bv31 32) ?x16793)) (_ bv24003 32))) (_ bv4294967295 32) (_ bv0 32))))
(let ((?x84156 (ite (bvsgt (_ bv22803 32) (bvadd (bvadd ?x87308 (bvsub (_ bv31 32) ?x16793)) (_ bv24003 32))) (_ bv1 32) ?x43055)))
(let ((?x51145 (ite (bvsle (_ bv25203 32) (bvadd (bvadd ?x87308 (bvsub (_ bv32 32) ?x16793)) (_ bv24003 32))) (_ bv4294967295 32) (_ bv0 32))))
(let ((?x24008 (ite (bvsgt (_ bv22803 32) (bvadd (bvadd ?x87308 (bvsub (_ bv32 32) ?x16793)) (_ bv24003 32))) (_ bv1 32) ?x51145)))
(let ((?x65586 (ite (bvsge ?x22908 (bvadd (select ?x202 (_ bv32 32)) ?x24008)) (_ bv32 32) (ite (bvsge ?x22908 (bvadd (select ?x202 (_ bv31 32)) ?x84156)) (_ bv31 32) ?x41865))))
(let ((?x79878 (ite (bvsle (_ bv25203 32) (bvadd (bvadd ?x87308 (bvsub (_ bv33 32) ?x16793)) (_ bv24003 32))) (_ bv4294967295 32) (_ bv0 32))))
(let ((?x47719 (ite (bvsgt (_ bv22803 32) (bvadd (bvadd ?x87308 (bvsub (_ bv33 32) ?x16793)) (_ bv24003 32))) (_ bv1 32) ?x79878)))
(let ((?x41829 (ite (bvsle (_ bv25203 32) (bvadd (bvadd ?x87308 (bvsub (_ bv34 32) ?x16793)) (_ bv24003 32))) (_ bv4294967295 32) (_ bv0 32))))
(let ((?x34507 (ite (bvsgt (_ bv22803 32) (bvadd (bvadd ?x87308 (bvsub (_ bv34 32) ?x16793)) (_ bv24003 32))) (_ bv1 32) ?x41829)))
(let ((?x37086 (ite (bvsge ?x22908 (bvadd (select ?x202 (_ bv34 32)) ?x34507)) (_ bv34 32) (ite (bvsge ?x22908 (bvadd (select ?x202 (_ bv33 32)) ?x47719)) (_ bv33 32) ?x65586))))
(let ((?x21924 (ite (bvsle (_ bv25203 32) (bvadd (bvadd ?x87308 (bvsub (_ bv35 32) ?x16793)) (_ bv24003 32))) (_ bv4294967295 32) (_ bv0 32))))
(let ((?x86584 (ite (bvsgt (_ bv22803 32) (bvadd (bvadd ?x87308 (bvsub (_ bv35 32) ?x16793)) (_ bv24003 32))) (_ bv1 32) ?x21924)))
(let ((?x27329 (ite (bvsle (_ bv25203 32) (bvadd (bvadd ?x87308 (bvsub (_ bv36 32) ?x16793)) (_ bv24003 32))) (_ bv4294967295 32) (_ bv0 32))))
(let ((?x30044 (ite (bvsgt (_ bv22803 32) (bvadd (bvadd ?x87308 (bvsub (_ bv36 32) ?x16793)) (_ bv24003 32))) (_ bv1 32) ?x27329)))
(let ((?x13621 (ite (bvsge ?x22908 (bvadd (select ?x202 (_ bv36 32)) ?x30044)) (_ bv36 32) (ite (bvsge ?x22908 (bvadd (select ?x202 (_ bv35 32)) ?x86584)) (_ bv35 32) ?x37086))))
(let ((?x11018 (ite (bvsle (_ bv25203 32) (bvadd (bvadd ?x87308 (bvsub (_ bv37 32) ?x16793)) (_ bv24003 32))) (_ bv4294967295 32) (_ bv0 32))))
(let ((?x53423 (ite (bvsgt (_ bv22803 32) (bvadd (bvadd ?x87308 (bvsub (_ bv37 32) ?x16793)) (_ bv24003 32))) (_ bv1 32) ?x11018)))
(let ((?x30392 (ite (bvsle (_ bv25203 32) (bvadd (bvadd ?x87308 (bvsub (_ bv38 32) ?x16793)) (_ bv24003 32))) (_ bv4294967295 32) (_ bv0 32))))
(let ((?x88533 (ite (bvsgt (_ bv22803 32) (bvadd (bvadd ?x87308 (bvsub (_ bv38 32) ?x16793)) (_ bv24003 32))) (_ bv1 32) ?x30392)))
(let ((?x42443 (ite (bvsge ?x22908 (bvadd (select ?x202 (_ bv38 32)) ?x88533)) (_ bv38 32) (ite (bvsge ?x22908 (bvadd (select ?x202 (_ bv37 32)) ?x53423)) (_ bv37 32) ?x13621))))
(let ((?x12123 (ite (bvsle (_ bv25203 32) (bvadd (bvadd ?x87308 (bvsub (_ bv39 32) ?x16793)) (_ bv24003 32))) (_ bv4294967295 32) (_ bv0 32))))
(let ((?x18471 (ite (bvsgt (_ bv22803 32) (bvadd (bvadd ?x87308 (bvsub (_ bv39 32) ?x16793)) (_ bv24003 32))) (_ bv1 32) ?x12123)))
(let ((?x75251 (ite (bvsle (_ bv25203 32) (bvadd (bvadd ?x87308 (bvsub (_ bv40 32) ?x16793)) (_ bv24003 32))) (_ bv4294967295 32) (_ bv0 32))))
(let ((?x37720 (ite (bvsgt (_ bv22803 32) (bvadd (bvadd ?x87308 (bvsub (_ bv40 32) ?x16793)) (_ bv24003 32))) (_ bv1 32) ?x75251)))
(let ((?x58389 (ite (bvsge ?x22908 (bvadd (select ?x202 (_ bv40 32)) ?x37720)) (_ bv40 32) (ite (bvsge ?x22908 (bvadd (select ?x202 (_ bv39 32)) ?x18471)) (_ bv39 32) ?x42443))))
(let ((?x38300 (ite (bvsle (_ bv25203 32) (bvadd (bvadd ?x87308 (bvsub (_ bv41 32) ?x16793)) (_ bv24003 32))) (_ bv4294967295 32) (_ bv0 32))))
(let ((?x61254 (ite (bvsgt (_ bv22803 32) (bvadd (bvadd ?x87308 (bvsub (_ bv41 32) ?x16793)) (_ bv24003 32))) (_ bv1 32) ?x38300)))
(let ((?x44333 (ite (bvsle (_ bv25203 32) (bvadd (bvadd ?x87308 (bvsub (_ bv42 32) ?x16793)) (_ bv24003 32))) (_ bv4294967295 32) (_ bv0 32))))
(let ((?x54769 (ite (bvsgt (_ bv22803 32) (bvadd (bvadd ?x87308 (bvsub (_ bv42 32) ?x16793)) (_ bv24003 32))) (_ bv1 32) ?x44333)))
(let ((?x8250 (ite (bvsge ?x22908 (bvadd (select ?x202 (_ bv42 32)) ?x54769)) (_ bv42 32) (ite (bvsge ?x22908 (bvadd (select ?x202 (_ bv41 32)) ?x61254)) (_ bv41 32) ?x58389))))
(let ((?x62826 (ite (bvsle (_ bv25203 32) (bvadd (bvadd ?x87308 (bvsub (_ bv43 32) ?x16793)) (_ bv24003 32))) (_ bv4294967295 32) (_ bv0 32))))
(let ((?x30491 (ite (bvsgt (_ bv22803 32) (bvadd (bvadd ?x87308 (bvsub (_ bv43 32) ?x16793)) (_ bv24003 32))) (_ bv1 32) ?x62826)))
(let ((?x65723 (ite (bvsle (_ bv25203 32) (bvadd (bvadd ?x87308 (bvsub (_ bv44 32) ?x16793)) (_ bv24003 32))) (_ bv4294967295 32) (_ bv0 32))))
(let ((?x12615 (ite (bvsgt (_ bv22803 32) (bvadd (bvadd ?x87308 (bvsub (_ bv44 32) ?x16793)) (_ bv24003 32))) (_ bv1 32) ?x65723)))
(let ((?x52292 (ite (bvsge ?x22908 (bvadd (select ?x202 (_ bv44 32)) ?x12615)) (_ bv44 32) (ite (bvsge ?x22908 (bvadd (select ?x202 (_ bv43 32)) ?x30491)) (_ bv43 32) ?x8250))))
(let ((?x84876 (ite (bvsle (_ bv25203 32) (bvadd (bvadd ?x87308 (bvsub (_ bv45 32) ?x16793)) (_ bv24003 32))) (_ bv4294967295 32) (_ bv0 32))))
(let ((?x84628 (ite (bvsgt (_ bv22803 32) (bvadd (bvadd ?x87308 (bvsub (_ bv45 32) ?x16793)) (_ bv24003 32))) (_ bv1 32) ?x84876)))
(let ((?x53241 (ite (bvsle (_ bv25203 32) (bvadd (bvadd ?x87308 (bvsub (_ bv46 32) ?x16793)) (_ bv24003 32))) (_ bv4294967295 32) (_ bv0 32))))
(let ((?x69662 (ite (bvsgt (_ bv22803 32) (bvadd (bvadd ?x87308 (bvsub (_ bv46 32) ?x16793)) (_ bv24003 32))) (_ bv1 32) ?x53241)))
(let ((?x84635 (ite (bvsge ?x22908 (bvadd (select ?x202 (_ bv46 32)) ?x69662)) (_ bv46 32) (ite (bvsge ?x22908 (bvadd (select ?x202 (_ bv45 32)) ?x84628)) (_ bv45 32) ?x52292))))
(let ((?x83985 (ite (bvsle (_ bv25203 32) (bvadd (bvadd ?x87308 (bvsub (_ bv47 32) ?x16793)) (_ bv24003 32))) (_ bv4294967295 32) (_ bv0 32))))
(let ((?x52205 (ite (bvsgt (_ bv22803 32) (bvadd (bvadd ?x87308 (bvsub (_ bv47 32) ?x16793)) (_ bv24003 32))) (_ bv1 32) ?x83985)))
(let ((?x13901 (ite (bvsge ?x22908 (bvadd (select ?x202 (_ bv47 32)) ?x52205)) (_ bv47 32) ?x84635)))
(let ((?x11456 (bvadd ?x87308 (bvsub ?x13901 ?x16793))))
(let ((?x72755 (bvadd ?x11456 (_ bv24003 32))))
(let ((?x63889 (bvadd (select ?x202 ?x13901) (ite (bvsgt (_ bv22803 32) ?x72755) (_ bv1 32) (ite (bvsle (_ bv25203 32) ?x72755) (_ bv4294967295 32) (_ bv0 32))))))
(let ((?x7751 (bvsub ?x22908 ?x63889)))
(let ((?x63565 (ite (or (= (_ bv22802 32) ?x72755) (= (_ bv25202 32) ?x72755)) (_ bv28 32) (select ?x108 ?x13901))))
(let ((?x2579 (ite (= (_ bv1 32) (ite (bvsge ?x7751 ?x63565) (_ bv1 32) (_ bv0 32))) (bvsub ?x7751 ?x63565) ?x7751)))
(let (($x61295 (= (bvadd ?x11456 (ite (bvsge ?x7751 ?x63565) (_ bv1 32) (_ bv0 32))) (bvsub (bvadd (bvmul (_ bv2021 32) (_ bv12 32)) (_ bv2 32)) (_ bv24003 32)))))
(and $x61295 (= (_ bv27 32) ?x2579)))))))))))))))))))))))))))))))))))))))))))))))))))))))))))))))))))))))))))))))))))))))))))))))))))))))))))))))))))))))))))))))))))))))))))))))))))))))))))))))))))))))))))))))))))))))))))))))))))))))))
(check-sat)
